NAME : portcgen-27-20
COMMENT : portcgen N=27, seed=20
TYPE : TSP
DIMENSION : 27
EDGE_WEIGHT_TYPE : EUC_2D
NODE_COORD_SECTION
1 279555 -79451
2 -110249 -21064
3 -528798 217317
4 159592 35286
5 96885 379219
6 -89517 -232661
7 3870 9084
8 -54887 -741697
9 96527 197092
10 121170 -108945
11 -121800 25954
12 79032 -138400
13 -203321 -114337
14 -140917 78682
15 398275 -369916
16 109648 -161179
17 169216 160508
18 66701 136542
19 -89303 -210851
20 122666 -179584
21 -108069 191574
22 -137348 -413680
23 -165738 -63366
24 -13354 -205365
25 80769 -98811
26 454595 -269271
27 -408857 40082
